9556 10444 974
9210 10790 959
9926 11074 896
11315 10685 840
11229 10771 913
11633 10367 962
10346 8654 975
12763 7237 749
9168 8832 981
12395 9605 866
8669 11331 881
11951 8049 944
12674 8326 893
8806 11194 910
9994 11006 913
9855 11145 832
11178 10822 811
12098 9902 932
